571 572 573 0 1 2 3 4 5 6 7 8 9 10 11 14 15 16 17 18 19 20 568 569 570 474 473 472 471 470 469 468 467 466 465 464 463 462 461 496 497 519 518 495 494 524 525 493 492 491 526 523 522 521 520 517 516 515 514 513 509 510 511 512 527 528 529 490 486 488 534 487 535 536 484 485 483 481 482 475 567 27 26 25 24 21 13 12 23 22 28 29 31 30 32 33 34 35 36 37 38 40 41 39 42 43 44 47 48 49 54 55 56 53 52 50 51 84 83 82 85 86 87 79 80 81 57 58 59 60 61 63 62 78 77 88 89 90 92 93 94 97 95 96 98 99 100 552 553 554 91 46 45 555 556 557 558 559 560 561 562 563 565 566 564 549 550 551 101 102 103 104 105 106 117 118 119 120 121 122 123 71 72 73 74 75 76 64 65 66 67 68 70 69 124 125 126 127 128 116 115 114 112 113 131 132 133 130 129 137 138 139 140 136 135 134 144 143 142 141 151 150 149 152 148 147 146 145 158 157 153 155 156 159 160 161 162 168 163 167 166 164 154 165 203 204 202 201 200 199 198 205 206 207 208 209 210 211 212 213 214 215 216 217 223 224 222 221 220 218 219 193 194 195 196 197 184 185 183 181 180 169 171 170 111 110 109 108 172 175 174 173 107 542 541 543 544 547 546 545 548 478 477 476 480 479 537 539 538 540 176 177 178 179 182 187 188 186 192 191 190 226 225 189 227 228 229 230 231 533 532 489 531 530 233 232 234 235 236 237 238 239 240 243 244 245 246 247 242 241 248 249 250 251 252 254 253 255 256 257 300 299 258 259 260 261 262 263 264 265 266 298 297 296 295 294 293 270 269 268 267 271 272 273 274 275 292 291 290 289 288 276 277 278 279 282 281 280 287 286 285 284 283 334 335 336 337 338 339 333 332 331 330 340 341 343 344 345 346 364 363 362 361 359 360 401 402 403 409 408 407 406 405 404 400 399 397 398 370 369 368 367 365 342 366 329 328 327 326 325 324 323 322 321 320 319 317 318 306 304 303 301 302 508 507 506 307 305 313 312 451 311 310 309 308 505 504 503 502 498 501 500 499 452 453 440 441 450 449 442 446 448 447 381 380 379 378 377 314 316 315 376 375 374 373 372 371 396 395 394 393 391 392 390 389 388 387 386 385 383 384 410 411 412 356 357 358 348 347 349 350 351 352 354 355 353 413 414 415 416 417 418 419 420 421 422 423 424 425 382 426 427 428 429 430 431 445 444 443 439 436 435 434 433 432 437 438 454 455 456 457 458 459 460